(set-logic QF_SLIA)
(declare-fun var0 () String)
(assert (not (str.in_re var0 (re.++ ((_ re.loop 19 291) (re.++ (re.union (str.to_re "t6?") (re.union (str.to_re "*") (re.union (str.to_re "#M(") (str.to_re "EDW")))) (re.++ (re.union (str.to_re ">6") (re.union (str.to_re ".B") (re.union (str.to_re "!8") (str.to_re "48x")))) (re.++ (re.union (str.to_re "}t") (re.union (str.to_re "P`") (re.union (str.to_re "\u0022") (str.to_re "t<")))) (re.union (str.to_re "?`") (re.union (str.to_re "p") (re.union (str.to_re "D\u0022z") (str.to_re ",!")))))))) (re.++ ((_ re.loop 2 155) (re.++ (re.union (str.to_re "gf&") (re.union (str.to_re ">") (re.union (str.to_re "~@") (str.to_re "U`")))) (re.++ (re.union (str.to_re ")%{") (re.union (str.to_re "X") (re.union (str.to_re "}") (str.to_re "8")))) (re.++ (re.union (str.to_re "{xA") (re.union (str.to_re "*") (re.union (str.to_re "w") (str.to_re "Qoo")))) (re.union (str.to_re "}a") (re.union (str.to_re "+") (re.union (str.to_re "3g") (str.to_re "L^")))))))) (re.++ ((_ re.loop 11 745) (re.++ (re.union (str.to_re "_D:") (re.union (str.to_re "r") (re.union (str.to_re "S") (str.to_re "G")))) (re.++ (re.union (str.to_re "wDs") (re.union (str.to_re "{8`") (re.union (str.to_re "{qR") (str.to_re "ZQ")))) (re.++ (re.union (str.to_re "5QT") (re.union (str.to_re "V") (re.union (str.to_re "{") (str.to_re "1$r")))) (re.union (str.to_re "|j") (re.union (str.to_re "?P|") (re.union (str.to_re "e4J") (str.to_re "dlD")))))))) ((_ re.loop 11 152) (re.++ (re.union (str.to_re "j") (re.union (str.to_re "J") (re.union (str.to_re "~6k") (str.to_re "&m")))) (re.++ (re.union (str.to_re "jq") (re.union (str.to_re "a>}") (re.union (str.to_re "Y") (str.to_re "^y2")))) (re.++ (re.union (str.to_re "RL") (re.union (str.to_re "n") (re.union (str.to_re "D") (str.to_re "Fmt")))) (re.union (str.to_re "_") (re.union (str.to_re "[b") (re.union (str.to_re "LO2") (str.to_re "SwI"))))))))))))))
(assert (not (str.in_re var0 (re.++ ((_ re.loop 8 147) (re.++ (re.union (str.to_re "3#b") (re.union (str.to_re "i") (re.union (str.to_re "w") (str.to_re "~U")))) (re.++ (re.union (str.to_re "x") (re.union (str.to_re "f") (re.union (str.to_re "|l") (str.to_re "&")))) (re.++ (re.union (str.to_re "Y_i") (re.union (str.to_re "*`") (re.union (str.to_re "+{") (str.to_re "oUc")))) (re.union (str.to_re "=") (re.union (str.to_re ".") (re.union (str.to_re "~U[") (str.to_re "yX")))))))) (re.++ ((_ re.loop 20 873) (re.++ (re.union (str.to_re "20") (re.union (str.to_re "@zP") (re.union (str.to_re "n") (str.to_re "Y")))) (re.++ (re.union (str.to_re "/B") (re.union (str.to_re "[") (re.union (str.to_re "gl:") (str.to_re "\\")))) (re.++ (re.union (str.to_re "f") (re.union (str.to_re "q") (re.union (str.to_re ",") (str.to_re "OuX")))) (re.union (str.to_re "4}u") (re.union (str.to_re "M") (re.union (str.to_re "N") (str.to_re "SU")))))))) (re.++ ((_ re.loop 19 625) (re.++ (re.union (str.to_re "@h)") (re.union (str.to_re "?") (re.union (str.to_re "%") (str.to_re "xN")))) (re.++ (re.union (str.to_re "]=") (re.union (str.to_re "9") (re.union (str.to_re "a-") (str.to_re ";~")))) (re.++ (re.union (str.to_re "_~") (re.union (str.to_re "79U") (re.union (str.to_re "C") (str.to_re "LWb")))) (re.union (str.to_re "]J") (re.union (str.to_re "R") (re.union (str.to_re "P'O") (str.to_re "?")))))))) ((_ re.loop 5 749) (re.++ (re.union (str.to_re "9w") (re.union (str.to_re "<\\.") (re.union (str.to_re "2>b") (str.to_re "}Qd")))) (re.++ (re.union (str.to_re "'}") (re.union (str.to_re "z#D") (re.union (str.to_re "y!3") (str.to_re "A<M")))) (re.++ (re.union (str.to_re "tvF") (re.union (str.to_re ",w") (re.union (str.to_re "B") (str.to_re "S,k")))) (re.union (str.to_re "f") (re.union (str.to_re "D") (re.union (str.to_re ";5^") (str.to_re "["))))))))))))))
(assert (not (str.in_re var0 (re.++ (re.* re.allchar) (re.++ (re.union (str.to_re "<") (re.union (str.to_re ">") (re.union (str.to_re "'") (re.union (str.to_re "\u0022") (str.to_re "&"))))) (re.* re.allchar))))))
(assert (<= 50 (str.len var0)))
(check-sat)
(get-model)
